400
150 150
1 120 819
2 120 799
3 120 762
4 120 783
5 120 26
6 119 182
7 119 572
8 119 687
9 119 452
10 119 968
11 119 971
12 118 902
13 118 906
14 117 313
15 117 571
16 117 558
17 117 5
18 117 79
19 116 835
20 116 19
21 116 717
22 116 92
23 115 90
24 115 399
25 115 241
26 115 677
27 115 615
28 115 319
29 114 88
30 114 460
31 114 869
32 114 72
33 114 714
34 113 852
35 113 843
36 113 34
37 113 508
38 113 458
39 113 317
40 113 466
41 112 647
42 111 940
43 111 727
44 111 953
45 111 50
46 110 202
47 110 589
48 110 895
49 110 580
50 110 173
51 110 365
52 109 497
53 109 217
54 109 838
55 109 308
56 108 674
57 108 659
58 107 205
59 107 266
60 107 570
61 107 242
62 107 797
63 107 967
64 107 828
65 107 708
66 107 458
67 106 41
68 106 325
69 106 673
70 106 827
71 106 569
72 106 566
73 105 461
74 105 586
75 105 732
76 105 215
77 105 333
78 105 39
79 104 537
80 104 750
81 104 447
82 104 841
83 103 924
84 103 935
85 103 816
86 102 400
87 101 262
88 100 823
89 100 793
90 100 904
91 100 978
92 99 329
93 99 607
94 99 263
95 99 66
96 99 603
97 98 458
98 98 383
99 97 908
100 97 268
101 97 945
102 97 701
103 97 113
104 97 256
105 96 353
106 96 697
107 96 299
108 96 312
109 96 213
110 96 308
111 96 328
112 95 899
113 95 637
114 95 817
115 95 674
116 95 826
117 95 188
118 95 8
119 94 912
120 94 223
121 94 122
122 94 245
123 94 939
124 94 322
125 94 14
126 94 472
127 94 558
128 93 70
129 93 61
130 93 86
131 93 696
132 93 120
133 92 542
134 92 181
135 92 956
136 92 314
137 92 594
138 91 807
139 91 674
140 91 791
141 90 382
142 90 921
143 90 136
144 90 437
145 89 724
146 88 923
147 88 505
148 88 957
149 88 716
150 88 276
151 88 300
152 88 343
153 87 807
154 87 539
155 87 34
156 86 830
157 86 249
158 86 975
159 86 279
160 86 438
161 86 710
162 86 424
163 85 325
164 85 824
165 85 245
166 85 1000
167 85 604
168 85 142
169 85 673
170 84 232
171 84 7
172 84 162
173 84 100
174 84 660
175 83 374
176 83 8
177 83 32
178 83 90
179 82 206
180 82 732
181 81 791
182 81 939
183 80 439
184 80 578
185 80 158
186 80 777
187 80 946
188 80 992
189 80 964
190 79 494
191 78 847
192 78 491
193 78 519
194 78 667
195 78 210
196 77 653
197 76 730
198 76 749
199 76 286
200 76 83
201 76 136
202 75 793
203 75 322
204 74 795
205 74 124
206 73 749
207 73 72
208 73 440
209 73 153
210 72 498
211 72 109
212 72 630
213 72 432
214 72 904
215 72 925
216 72 596
217 71 413
218 71 561
219 71 910
220 71 740
221 71 396
222 71 107
223 70 475
224 70 264
225 68 715
226 68 499
227 67 522
228 67 570
229 67 392
230 67 871
231 67 144
232 67 614
233 66 873
234 66 523
235 66 499
236 65 459
237 64 943
238 64 443
239 64 256
240 64 106
241 64 348
242 63 671
243 63 449
244 63 316
245 63 764
246 63 897
247 62 666
248 62 464
249 62 396
250 62 753
251 62 219
252 62 662
253 62 632
254 61 689
255 61 48
256 61 536
257 61 989
258 60 299
259 60 933
260 60 262
261 60 664
262 60 659
263 60 284
264 59 774
265 59 868
266 59 432
267 59 616
268 58 220
269 58 452
270 58 178
271 57 339
272 57 172
273 57 570
274 57 122
275 57 352
276 57 799
277 57 373
278 57 349
279 56 777
280 56 992
281 56 951
282 56 405
283 56 743
284 55 103
285 55 141
286 54 331
287 54 805
288 54 819
289 53 958
290 53 986
291 53 215
292 53 40
293 52 67
294 52 159
295 51 786
296 51 687
297 51 126
298 51 87
299 51 206
300 51 335
301 51 98
302 50 837
303 50 475
304 50 574
305 49 908
306 49 435
307 49 887
308 48 256
309 48 950
310 48 773
311 48 214
312 48 283
313 48 568
314 47 645
315 47 260
316 47 662
317 47 376
318 46 108
319 46 277
320 45 820
321 45 620
322 45 288
323 45 605
324 44 633
325 44 841
326 44 429
327 43 116
328 43 593
329 43 759
330 43 403
331 42 672
332 42 258
333 42 343
334 41 200
335 41 488
336 41 795
337 41 915
338 41 829
339 41 561
340 41 106
341 41 86
342 41 159
343 41 194
344 40 1
345 40 960
346 40 827
347 40 902
348 39 13
349 39 376
350 39 917
351 39 872
352 39 271
353 39 905
354 39 949
355 39 501
356 38 567
357 38 445
358 38 623
359 38 432
360 37 818
361 37 114
362 37 625
363 37 192
364 37 101
365 37 948
366 37 477
367 37 767
368 36 91
369 36 144
370 36 592
371 35 230
372 35 588
373 34 343
374 34 261
375 34 198
376 34 536
377 34 0
378 34 609
379 33 896
380 33 762
381 33 649
382 33 506
383 33 754
384 33 331
385 33 94
386 33 285
387 32 255
388 32 611
389 32 794
390 32 718
391 31 448
392 31 350
393 31 600
394 31 414
395 31 790
396 31 827
397 31 863
398 31 551
399 30 381
400 30 524
